For VASP. System= Fe
2.76
1.0000000000000000 0.0000000000000000 0.0000000000000000
0.0000000000000000 1.000000000000000 0.0000000000000000
0.000000000000000 0.0000000000000000 1.000000000000000
Fe
2
Direct
0.0000000000000000 0.0000000000000000 0.0000000000000000
0.5000000000000000 0.5000000000000000 0.5000000000000000